(set-logic QF_LRA)
(declare-fun X0 () Real )
(declare-fun Y0 () Real )
(declare-fun X1 () Real )
(declare-fun Y1 () Real )
(declare-fun X2 () Real )
(declare-fun Y2 () Real )
(declare-fun X3 () Real )
(declare-fun Y3 () Real )
(declare-fun X4 () Real )
(declare-fun Y4 () Real )
(declare-fun X5 () Real )
(declare-fun Y5 () Real )
(declare-fun X6 () Real )
(declare-fun Y6 () Real )
(declare-fun X7 () Real )
(declare-fun Y7 () Real )
(declare-fun X8 () Real )
(declare-fun Y8 () Real )
(declare-fun Z () Real )
(assert ( and  
( or ( <= ( + X0 71 ) X1 )  ( <= ( + X1 16 ) X0 )  ( <= ( + Y0 77 ) Y1 )  ( <= ( + Y1 25 ) Y0 )  )
( or ( <= ( + X0 71 ) X2 )  ( <= ( + X2 89 ) X0 )  ( <= ( + Y0 77 ) Y2 )  ( <= ( + Y2 91 ) Y0 )  )
( or ( <= ( + X0 71 ) X3 )  ( <= ( + X3 79 ) X0 )  ( <= ( + Y0 77 ) Y3 )  ( <= ( + Y3 10 ) Y0 )  )
( or ( <= ( + X0 71 ) X4 )  ( <= ( + X4 25 ) X0 )  ( <= ( + Y0 77 ) Y4 )  ( <= ( + Y4 30 ) Y0 )  )
( or ( <= ( + X0 71 ) X5 )  ( <= ( + X5 88 ) X0 )  ( <= ( + Y0 77 ) Y5 )  ( <= ( + Y5 11 ) Y0 )  )
( or ( <= ( + X0 71 ) X6 )  ( <= ( + X6 5 ) X0 )  ( <= ( + Y0 77 ) Y6 )  ( <= ( + Y6 3 ) Y0 )  )
( or ( <= ( + X0 71 ) X7 )  ( <= ( + X7 21 ) X0 )  ( <= ( + Y0 77 ) Y7 )  ( <= ( + Y7 1 ) Y0 )  )
( or ( <= ( + X0 71 ) X8 )  ( <= ( + X8 77 ) X0 )  ( <= ( + Y0 77 ) Y8 )  ( <= ( + Y8 51 ) Y0 )  )
( or ( <= ( + X1 16 ) X2 )  ( <= ( + X2 89 ) X1 )  ( <= ( + Y1 25 ) Y2 )  ( <= ( + Y2 91 ) Y1 )  )
( or ( <= ( + X1 16 ) X3 )  ( <= ( + X3 79 ) X1 )  ( <= ( + Y1 25 ) Y3 )  ( <= ( + Y3 10 ) Y1 )  )
( or ( <= ( + X1 16 ) X4 )  ( <= ( + X4 25 ) X1 )  ( <= ( + Y1 25 ) Y4 )  ( <= ( + Y4 30 ) Y1 )  )
( or ( <= ( + X1 16 ) X5 )  ( <= ( + X5 88 ) X1 )  ( <= ( + Y1 25 ) Y5 )  ( <= ( + Y5 11 ) Y1 )  )
( or ( <= ( + X1 16 ) X6 )  ( <= ( + X6 5 ) X1 )  ( <= ( + Y1 25 ) Y6 )  ( <= ( + Y6 3 ) Y1 )  )
( or ( <= ( + X1 16 ) X7 )  ( <= ( + X7 21 ) X1 )  ( <= ( + Y1 25 ) Y7 )  ( <= ( + Y7 1 ) Y1 )  )
( or ( <= ( + X1 16 ) X8 )  ( <= ( + X8 77 ) X1 )  ( <= ( + Y1 25 ) Y8 )  ( <= ( + Y8 51 ) Y1 )  )
( or ( <= ( + X2 89 ) X3 )  ( <= ( + X3 79 ) X2 )  ( <= ( + Y2 91 ) Y3 )  ( <= ( + Y3 10 ) Y2 )  )
( or ( <= ( + X2 89 ) X4 )  ( <= ( + X4 25 ) X2 )  ( <= ( + Y2 91 ) Y4 )  ( <= ( + Y4 30 ) Y2 )  )
( or ( <= ( + X2 89 ) X5 )  ( <= ( + X5 88 ) X2 )  ( <= ( + Y2 91 ) Y5 )  ( <= ( + Y5 11 ) Y2 )  )
( or ( <= ( + X2 89 ) X6 )  ( <= ( + X6 5 ) X2 )  ( <= ( + Y2 91 ) Y6 )  ( <= ( + Y6 3 ) Y2 )  )
( or ( <= ( + X2 89 ) X7 )  ( <= ( + X7 21 ) X2 )  ( <= ( + Y2 91 ) Y7 )  ( <= ( + Y7 1 ) Y2 )  )
( or ( <= ( + X2 89 ) X8 )  ( <= ( + X8 77 ) X2 )  ( <= ( + Y2 91 ) Y8 )  ( <= ( + Y8 51 ) Y2 )  )
( or ( <= ( + X3 79 ) X4 )  ( <= ( + X4 25 ) X3 )  ( <= ( + Y3 10 ) Y4 )  ( <= ( + Y4 30 ) Y3 )  )
( or ( <= ( + X3 79 ) X5 )  ( <= ( + X5 88 ) X3 )  ( <= ( + Y3 10 ) Y5 )  ( <= ( + Y5 11 ) Y3 )  )
( or ( <= ( + X3 79 ) X6 )  ( <= ( + X6 5 ) X3 )  ( <= ( + Y3 10 ) Y6 )  ( <= ( + Y6 3 ) Y3 )  )
( or ( <= ( + X3 79 ) X7 )  ( <= ( + X7 21 ) X3 )  ( <= ( + Y3 10 ) Y7 )  ( <= ( + Y7 1 ) Y3 )  )
( or ( <= ( + X3 79 ) X8 )  ( <= ( + X8 77 ) X3 )  ( <= ( + Y3 10 ) Y8 )  ( <= ( + Y8 51 ) Y3 )  )
( or ( <= ( + X4 25 ) X5 )  ( <= ( + X5 88 ) X4 )  ( <= ( + Y4 30 ) Y5 )  ( <= ( + Y5 11 ) Y4 )  )
( or ( <= ( + X4 25 ) X6 )  ( <= ( + X6 5 ) X4 )  ( <= ( + Y4 30 ) Y6 )  ( <= ( + Y6 3 ) Y4 )  )
( or ( <= ( + X4 25 ) X7 )  ( <= ( + X7 21 ) X4 )  ( <= ( + Y4 30 ) Y7 )  ( <= ( + Y7 1 ) Y4 )  )
( or ( <= ( + X4 25 ) X8 )  ( <= ( + X8 77 ) X4 )  ( <= ( + Y4 30 ) Y8 )  ( <= ( + Y8 51 ) Y4 )  )
( or ( <= ( + X5 88 ) X6 )  ( <= ( + X6 5 ) X5 )  ( <= ( + Y5 11 ) Y6 )  ( <= ( + Y6 3 ) Y5 )  )
( or ( <= ( + X5 88 ) X7 )  ( <= ( + X7 21 ) X5 )  ( <= ( + Y5 11 ) Y7 )  ( <= ( + Y7 1 ) Y5 )  )
( or ( <= ( + X5 88 ) X8 )  ( <= ( + X8 77 ) X5 )  ( <= ( + Y5 11 ) Y8 )  ( <= ( + Y8 51 ) Y5 )  )
( or ( <= ( + X6 5 ) X7 )  ( <= ( + X7 21 ) X6 )  ( <= ( + Y6 3 ) Y7 )  ( <= ( + Y7 1 ) Y6 )  )
( or ( <= ( + X6 5 ) X8 )  ( <= ( + X8 77 ) X6 )  ( <= ( + Y6 3 ) Y8 )  ( <= ( + Y8 51 ) Y6 )  )
( or ( <= ( + X7 21 ) X8 )  ( <= ( + X8 77 ) X7 )  ( <= ( + Y7 1 ) Y8 )  ( <= ( + Y8 51 ) Y7 )  )
( >= X0 0)
( <= ( + X0 71) Z)
( >= Y0 0)
( <= ( + Y0 77 ) 100)
( >= X1 0)
( <= ( + X1 16) Z)
( >= Y1 0)
( <= ( + Y1 25 ) 100)
( >= X2 0)
( <= ( + X2 89) Z)
( >= Y2 0)
( <= ( + Y2 91 ) 100)
( >= X3 0)
( <= ( + X3 79) Z)
( >= Y3 0)
( <= ( + Y3 10 ) 100)
( >= X4 0)
( <= ( + X4 25) Z)
( >= Y4 0)
( <= ( + Y4 30 ) 100)
( >= X5 0)
( <= ( + X5 88) Z)
( >= Y5 0)
( <= ( + Y5 11 ) 100)
( >= X6 0)
( <= ( + X6 5) Z)
( >= Y6 0)
( <= ( + Y6 3 ) 100)
( >= X7 0)
( <= ( + X7 21) Z)
( >= Y7 0)
( <= ( + Y7 1 ) 100)
( >= X8 0)
( <= ( + X8 77) Z)
( >= Y8 0)
( <= ( + Y8 51 ) 100)
) )
(minimize Z)
(check-sat)
